133065
28,9,0,63,72,12,17,36,44,45,53,79,61,69,13,25,35,65,19,70,20,47,23,18,4,21,43,67,58,52,3,49,64,62,38,40,51,7,27,34,29,1,37,15,10,39,73,31,57,76,8,74,81,32,26,6,55,16,78,5,60,14,68,24,41,54,22,11,2,56,33,48,42,59,46,80,71,50,77,82,30,75,66,28
